qbf_easy_train/easy_3636_SAT.qdimacs
p cnf 22 54
a 8 3 11 0
e 1 2 4 5 6 7 9 10 12 13 14 15 16 17 18 19 20 21 22 0
-1 -2 -3 0
1 2 -3 0
-1 2 3 0
1 -2 3 0
-3 4 -5 0
3 -4 -5 0
-3 -4 5 0
3 4 5 0
6 2 -7 0
-6 -2 -7 0
6 -2 7 0
-6 2 7 0
5 7 -8 0
-5 -7 -8 0
5 -7 8 0
-5 7 8 0
2 9 -10 0
-2 -9 -10 0
2 -9 10 0
-2 9 10 0
-11 -2 0
-11 10 0
2 -10 11 0
-13 -10 -14 0
13 10 -14 0
-13 10 14 0
13 -10 14 0
-15 -10 0
-15 -14 0
10 14 15 0
-16 12 0
-16 15 0
-12 -15 16 0
17 -11 0
17 -16 0
11 16 -17 0
19 -18 0
19 12 0
18 -12 -19 0
20 -3 0
20 -19 0
3 19 -20 0
-21 -17 0
-21 20 0
17 -20 21 0
22 8 0
22 21 0
-8 -21 -22 0
20 -4 -18 2 17 0
-3 18 13 8 0
18 22 16 6 0
-7 -4 6 10 1 -12 0
-2 -4 14 19 -12 17 9 0
22 0
