sat_easy_train/easy_3636_SAT.dimacs
p cnf 150 510
1 2 -3 0
-1 -2 -3 0
1 -2 3 0
-1 2 3 0
7 -5 0
7 6 0
5 -6 -7 0
7 -2 -8 0
-7 2 -8 0
7 2 8 0
-7 -2 8 0
-11 -9 0
-11 -10 0
9 10 11 0
12 8 0
12 -11 0
-8 11 -12 0
4 12 -13 0
-4 -12 -13 0
4 -12 13 0
-4 12 13 0
3 -13 -14 0
-3 13 -14 0
3 13 14 0
-3 -13 14 0
15 -14 0
15 1 0
14 -1 -15 0
17 1 0
17 -16 0
-1 16 -17 0
17 -2 -18 0
-17 2 -18 0
17 2 18 0
-17 -2 18 0
-18 -19 -20 0
18 19 -20 0
-18 19 20 0
18 -19 20 0
-21 -15 0
-21 20 0
15 -20 21 0
22 5 0
22 4 0
-5 -4 -22 0
22 -1 -23 0
-22 1 -23 0
22 1 23 0
-22 -1 23 0
-24 -5 0
-24 -23 0
5 23 24 0
25 -11 0
25 -17 0
11 17 -25 0
26 24 0
26 25 0
-24 -25 -26 0
-28 -9 0
-28 -27 0
9 27 28 0
-29 -28 0
-29 25 0
28 -25 29 0
31 29 0
31 30 0
-29 -30 -31 0
32 -8 0
32 -31 0
8 31 -32 0
33 -32 0
33 -28 0
32 28 -33 0
-34 10 0
-34 -2 0
-10 2 34 0
-35 33 0
-35 34 0
-33 -34 35 0
-36 26 0
-36 35 0
-26 -35 36 0
-21 -36 -37 0
21 36 -37 0
-21 36 37 0
21 -36 37 0
18 -7 -38 0
-18 7 -38 0
18 7 38 0
-18 -7 38 0
39 -38 0
39 -4 0
38 4 -39 0
-40 -25 0
-40 -39 0
25 39 40 0
41 -32 0
41 40 0
32 -40 -41 0
-42 -23 0
-42 13 0
23 -13 42 0
-41 -42 -43 0
41 42 -43 0
-41 42 43 0
41 -42 43 0
-44 39 0
-44 20 0
-39 -20 44 0
45 -44 0
45 -24 0
44 24 -45 0
43 -45 -46 0
-43 45 -46 0
43 45 46 0
-43 -45 46 0
47 37 0
47 46 0
-37 -46 -47 0
-48 -34 0
-48 -7 0
34 7 48 0
-49 -48 0
-49 -40 0
48 40 49 0
50 49 0
50 14 0
-49 -14 -50 0
51 50 0
51 18 0
-50 -18 -51 0
54 -53 0
54 -4 0
53 4 -54 0
-55 52 0
-55 54 0
-52 -54 55 0
-56 27 0
-56 -28 0
-27 28 56 0
-57 -55 0
-57 -56 0
55 56 57 0
-59 -1 0
-59 58 0
1 -58 59 0
60 19 0
60 6 0
-19 -6 -60 0
61 -60 0
61 -60 0
60 -61 0
-62 7 0
-62 -10 0
-7 10 62 0
-61 62 -63 0
61 -62 -63 0
-61 -62 63 0
61 62 63 0
-64 63 0
-64 -39 0
-63 39 64 0
-65 -59 0
-65 -64 0
59 64 65 0
31 -24 -66 0
-31 24 -66 0
31 24 66 0
-31 -24 66 0
-67 -64 0
-67 -23 0
64 23 67 0
68 -66 0
68 -67 0
66 67 -68 0
-69 -65 0
-69 -68 0
65 68 69 0
70 61 0
70 -61 0
-40 61 -71 0
40 -61 -71 0
-40 -61 71 0
40 61 71 0
72 -6 0
72 5 0
6 -5 -72 0
7 3 -73 0
-7 -3 -73 0
7 -3 73 0
-7 3 73 0
74 20 0
74 9 0
-20 -9 -74 0
-75 -73 0
-75 74 0
73 -74 75 0
72 -75 -76 0
-72 75 -76 0
72 75 76 0
-72 -75 76 0
-77 -71 0
-77 76 0
71 -76 77 0
70 -77 -78 0
-70 77 -78 0
70 77 78 0
-70 -77 78 0
79 -69 0
79 -78 0
69 78 -79 0
57 -79 -80 0
-57 79 -80 0
57 79 80 0
-57 -79 80 0
2 -5 -81 0
-2 5 -81 0
2 5 81 0
-2 -5 81 0
82 -11 0
82 81 0
11 -81 -82 0
83 18 0
83 -10 0
-18 10 -83 0
-18 20 -84 0
18 -20 -84 0
-18 -20 84 0
18 20 84 0
83 84 -85 0
-83 -84 -85 0
83 -84 85 0
-83 84 85 0
86 -82 0
86 85 0
82 -85 -86 0
-80 -86 -87 0
80 86 -87 0
-80 86 87 0
80 -86 87 0
88 51 0
88 87 0
-51 -87 -88 0
-90 20 0
-90 -89 0
-20 89 90 0
-91 88 0
-91 90 0
-88 -90 91 0
-47 -91 -92 0
47 91 -92 0
-47 91 92 0
47 -91 92 0
-93 -17 0
-93 52 0
17 -52 93 0
-94 93 0
-94 -2 0
-93 2 94 0
-81 60 -95 0
81 -60 -95 0
-81 -60 95 0
81 60 95 0
96 -64 0
96 22 0
64 -22 -96 0
-96 72 -97 0
96 -72 -97 0
-96 -72 97 0
96 72 97 0
17 -72 -98 0
-17 72 -98 0
17 72 98 0
-17 -72 98 0
97 -98 -99 0
-97 98 -99 0
97 98 99 0
-97 -98 99 0
100 95 0
100 99 0
-95 -99 -100 0
33 -44 -101 0
-33 44 -101 0
33 44 101 0
-33 -44 101 0
-102 -30 0
-102 -101 0
30 101 102 0
-72 -34 -103 0
72 34 -103 0
-72 34 103 0
72 -34 103 0
-103 3 -104 0
103 -3 -104 0
-103 -3 104 0
103 3 104 0
-105 102 0
-105 -104 0
-102 104 105 0
106 -62 0
106 4 0
62 -4 -106 0
-107 -105 0
-107 106 0
105 -106 107 0
-108 66 0
-108 101 0
-66 -101 108 0
-89 -52 -109 0
89 52 -109 0
-89 52 109 0
89 -52 109 0
110 108 0
110 -109 0
-108 109 -110 0
1 16 -111 0
-1 -16 -111 0
1 -16 111 0
-1 16 111 0
-112 110 0
-112 -111 0
-110 111 112 0
113 -81 0
113 53 0
81 -53 -113 0
113 30 -114 0
-113 -30 -114 0
113 -30 114 0
-113 30 114 0
-115 -28 0
-115 -6 0
28 6 115 0
116 -114 0
116 -115 0
114 115 -116 0
-81 24 -117 0
81 -24 -117 0
-81 -24 117 0
81 24 117 0
-118 117 0
-118 22 0
-117 -22 118 0
119 116 0
119 118 0
-116 -118 -119 0
-121 120 0
-121 74 0
-120 -74 121 0
-122 -16 0
-122 -38 0
16 38 122 0
-121 122 -123 0
121 -122 -123 0
-121 -122 123 0
121 122 123 0
-15 52 -124 0
15 -52 -124 0
-15 -52 124 0
15 52 124 0
125 -52 0
125 -9 0
52 9 -125 0
126 -125 0
126 -48 0
125 48 -126 0
-126 13 -127 0
126 -13 -127 0
-126 -13 127 0
126 13 127 0
128 -124 0
128 -127 0
124 127 -128 0
129 -123 0
129 128 0
123 -128 -129 0
-119 129 -130 0
119 -129 -130 0
-119 -129 130 0
119 129 130 0
131 112 0
131 130 0
-112 -130 -131 0
30 -73 -132 0
-30 73 -132 0
30 73 132 0
-30 -73 132 0
54 -132 -133 0
-54 132 -133 0
54 132 133 0
-54 -132 133 0
-134 -89 0
-134 -6 0
89 6 134 0
-135 134 0
-135 -30 0
-134 30 135 0
136 135 0
136 -62 0
-135 62 -136 0
137 74 0
137 -61 0
-74 61 -137 0
138 -103 0
138 -40 0
103 40 -138 0
139 137 0
139 138 0
-137 -138 -139 0
-140 136 0
-140 139 0
-136 -139 140 0
-141 -133 0
-141 -140 0
133 140 141 0
142 93 0
142 -52 0
-93 52 -142 0
143 -125 0
143 -58 0
125 58 -143 0
-142 143 -144 0
142 -143 -144 0
-142 -143 144 0
142 143 144 0
145 141 0
145 144 0
-141 -144 -145 0
146 -131 0
146 -145 0
131 145 -146 0
-147 -107 0
-147 146 0
107 -146 147 0
100 147 -148 0
-100 -147 -148 0
100 -147 148 0
-100 147 148 0
149 -94 0
149 148 0
94 -148 -149 0
-150 92 0
-150 149 0
-92 -149 150 0
-29 132 2 -20 0
22 29 141 0
-117 -73 9 80 -94 138 0
-13 -130 59 37 0
41 -79 -110 -21 -61 0
-32 70 10 126 43 -5 0
131 39 -99 0
-50 -74 20 -127 0
-97 115 -35 0
-24 3 -72 130 113 0
25 -50 35 -129 0
29 105 0
88 27 -96 0
72 -136 108 42 0
-38 -109 52 136 140 0
89 -120 0
-19 120 94 36 0
118 -26 0
-15 115 0
-110 4 -37 132 41 0
-147 -39 11 0
132 -14 -23 -12 52 0
98 6 0
-140 84 145 43 -63 -60 0
98 86 0
71 127 -124 -130 0
-70 -37 138 0
129 -53 -72 -91 147 -105 0
10 -22 142 -60 45 53 0
130 141 0
-13 -28 -92 -148 0
-60 52 -139 -133 0
-42 -13 0
100 36 -56 -42 -27 0
-142 52 3 -44 0
54 20 -122 0
78 -48 -3 41 -85 0
131 -54 60 -11 122 0
-29 -132 -67 -42 -34 -86 0
-124 41 -99 0
-65 86 33 90 41 0
-6 -97 -36 -110 -52 115 0
-131 87 132 -114 -53 121 0
53 -13 -112 93 0
-93 8 0
-120 -136 61 -93 -119 0
-70 74 129 32 0
-36 62 138 -47 90 0
137 -10 0
138 90 -87 0
115 -131 -143 88 -31 0
139 -82 3 -121 0
-131 -49 109 0
138 -126 -69 63 2 0
-7 64 41 -86 98 0
70 -72 0
-74 -52 0
-37 79 0
30 -83 -102 0
-97 -13 0
129 -78 -146 49 144 0
-17 -55 111 136 0
-120 -36 -50 -58 0
-12 124 56 111 0
-91 -135 -66 127 0
-93 17 94 37 0
150 0
